% Auto-generated by scripts/generate_dzn.py
% problem_type   = regex
% instance       = regex_35
% source_json    = instances_json/2_high_blowup/regex_35.json
% blowup         = 65.8
% representation = NFA

mode = 1;

var_count = 37;
Q = 15;
S = 3;
q0 = 1;
F = {15};
d_dfa = array2d(1..15, 1..3, [
  0, 0, 0,
  0, 0, 0,
  0, 0, 0,
  0, 0, 0,
  0, 0, 0,
  0, 0, 0,
  0, 0, 0,
  0, 0, 0,
  0, 0, 0,
  0, 0, 0,
  0, 0, 0,
  0, 0, 0,
  0, 0, 0,
  0, 0, 0,
  0, 0, 0
]);
d_nfa = array2d(1..15, 1..3, [
  {1, 2}, {1}, {1},
  {}, {3}, {},
  {4}, {4}, {4},
  {5}, {5}, {5},
  {6}, {6}, {6},
  {7}, {7}, {7},
  {8}, {8}, {8},
  {9}, {9}, {9},
  {10}, {10}, {10},
  {11}, {11}, {11},
  {12}, {12}, {12},
  {13}, {13}, {13},
  {14}, {14}, {14},
  {15}, {15}, {15},
  {}, {}, {}
]);
